results_rootrelaxation/bin018_070_039.srr.sol
solution status: optimal solution found
objective value:                     1.80648987065803
_var2744_                          0.0471700813926192 	(obj:0)
_var2994_                          0.0929161555807431 	(obj:0)
_var3044_                           0.118051380694616 	(obj:0)
_var3091_                           0.636020983275989 	(obj:0)
_var3109_                           0.142868118350613 	(obj:0)
_var3127_                           0.293656032366816 	(obj:0)
_var3131_                           0.363979016724011 	(obj:0)
_var3142_                           0.241828157972169 	(obj:0)
_var3161_                          0.0254513254486892 	(obj:0)
_var3186_                            0.11163096519753 	(obj:0)
_var3189_                           0.329770836920841 	(obj:0)
_var3197_                          0.0686355413560889 	(obj:0)
_var3212_                         0.00122059276964281 	(obj:0)
_var3218_                           0.159613010722325 	(obj:0)
_var3226_                          0.0100462316880418 	(obj:0)
_var3228_                          0.0677355185760255 	(obj:0)
_var3254_                           0.155144348110835 	(obj:0)
_var3265_                          0.0985418069312288 	(obj:0)
_var3277_                            0.01610216891441 	(obj:0)
_var3293_                          0.0618524498364323 	(obj:1)
_var3313_                           0.221356118218512 	(obj:1)
_var3316_                           0.417967651212457 	(obj:0)
_var3326_                         0.00309304475265981 	(obj:0)
_var3352_                           0.171863821491406 	(obj:0)
_var3367_                          0.0124052981106796 	(obj:0)
_var3371_                          0.0756345643282452 	(obj:0)
_var3372_                           0.319107357815504 	(obj:0)
_var3377_                           0.159965216541398 	(obj:0)
_var3378_                           0.134009755705617 	(obj:1)
_var3383_                           0.273651508580116 	(obj:0)
_var3425_                           0.141370055762895 	(obj:0)
_var3426_                          0.0107762572756393 	(obj:0)
_var3428_                          0.0729995307051011 	(obj:0)
_var3438_                           0.125897535697467 	(obj:0)
_var3439_                          0.0564905696306809 	(obj:0)
_var3444_                          0.0209179932329202 	(obj:0)
_var3445_                           0.293667512583307 	(obj:0)
_var3452_                         0.00900865714285243 	(obj:0)
_var3457_                            0.14080415579908 	(obj:0)
_var3459_                           0.149566026485308 	(obj:0)
_var3462_                           0.130444416771279 	(obj:0)
_var3463_                           0.500815130096291 	(obj:1)
_var3464_                           0.096788079098764 	(obj:0)
_var3466_                          0.0703115041407045 	(obj:1)
_var3467_                           0.500787276358691 	(obj:0)
_var3475_                           0.326747234034265 	(obj:0)
_var3485_                           0.400618662923719 	(obj:0)
_var3488_                          0.0256899871543994 	(obj:0)
_var3491_                           0.170322163647224 	(obj:0)
_var3493_                            0.01877733616795 	(obj:0)
_var3496_                           0.327424980535572 	(obj:0)
_var3499_                          0.0956430646690622 	(obj:0)
_var3501_                            0.11927084141629 	(obj:0)
_var3502_                          0.0305125809411576 	(obj:0)
_var3504_                           0.272563010231307 	(obj:0)
_var3505_                          0.0805653455877234 	(obj:0)
_var3519_                             0.1318846238699 	(obj:0)
_var3520_                          0.0112024897054523 	(obj:0)
_var3522_                          0.0405020380921304 	(obj:0)
_var3523_                          0.0582652279485909 	(obj:0)
_var3529_                            0.36829859328148 	(obj:0)
_var3530_                          0.0124052981106828 	(obj:0)
_var3531_                         0.00875947364162555 	(obj:1)
_var3532_                          0.0644957064337564 	(obj:0)
_var3538_                          0.0231536480723915 	(obj:0)
_var3554_                          0.0757683632700294 	(obj:0)
_var3556_                          0.0372317826897462 	(obj:0)
_var3559_                           0.232451324303742 	(obj:0)
_var3563_                          0.0561761351227997 	(obj:0)
_var3571_                           0.203496065337611 	(obj:0)
_var3581_                          0.0584190589801793 	(obj:0)
_var3583_                          0.0505080761244476 	(obj:1)
_var3587_                          0.0148248536958001 	(obj:0)
_var3589_                           0.371255917289626 	(obj:0)
_var3592_                           0.176846084641258 	(obj:0)
_var3593_                           0.104422782225415 	(obj:0)
_var3594_                          0.0852722244276794 	(obj:0)
_var3599_                           0.122411531398951 	(obj:0)
_var3600_                           0.109924198008654 	(obj:0)
_var3602_                           0.106653280839411 	(obj:0)
_var3603_                           0.263087657633043 	(obj:0)
_var3604_                         0.00649319199350532 	(obj:0)
_var3605_                           0.145942759634622 	(obj:1)
_var3607_                          0.0316185531101054 	(obj:1)
_var3610_                            0.28824768064951 	(obj:0)
_var3612_                          0.0259870321752464 	(obj:0)
_var3615_                          0.0412383455041772 	(obj:0)
_var3616_                           0.102475533719988 	(obj:0)
_var3617_                           0.130821806440944 	(obj:0)
_var3624_                          0.0265077940827805 	(obj:0)
_var3627_                          0.0461325787786115 	(obj:0)
_var3628_                           0.205556691274493 	(obj:0)
_var3632_                           0.125205585516334 	(obj:0)
_var3635_                          0.0380747317982433 	(obj:1)
_var3636_                          0.0973660257991323 	(obj:0)
_var3638_                           0.093999001626964 	(obj:0)
_var3639_                          0.0696560324938148 	(obj:0)
_var3642_                           0.170528983155366 	(obj:0)
_var3643_                          0.0749161851429724 	(obj:0)
_var3645_                           0.162345612791563 	(obj:0)
_var3646_                           0.247634741542862 	(obj:0)
_var3648_                           0.142483648668418 	(obj:1)
_var3649_                           0.105765477430732 	(obj:0)
_var3654_                           0.100890909645107 	(obj:0)
_var3657_                           0.088736385458865 	(obj:0)
_var3658_                           0.113946223546621 	(obj:1)
_var3661_                          0.0282229613453676 	(obj:0)
_var3665_                           0.198179894668981 	(obj:0)
_var3668_                           0.199920065706166 	(obj:0)
_var3669_                          0.0899569782285104 	(obj:0)
_var3672_                           0.120307996776311 	(obj:0)
_var3673_                          0.0198747013990328 	(obj:0)
_var3674_                          0.0923902314948007 	(obj:0)
_var3676_                            0.03628514255146 	(obj:0)
_var3678_                          0.0985646989055718 	(obj:0)
_var3681_                           0.184781628770809 	(obj:0)
_var3682_                          0.0265077940827806 	(obj:1)
_var3683_                          0.0676895590160455 	(obj:0)
_var3686_                           0.025740119715036 	(obj:0)
_var3687_                           0.109745780899393 	(obj:0)
_var3689_                          0.0385882142702549 	(obj:0)
_var3695_                          0.0830127688005957 	(obj:0)
_var3696_                          0.0994004796998176 	(obj:0)
_var3697_                           0.128756565994781 	(obj:0)
_var3698_                          0.0358815074261827 	(obj:0)
_var3702_                          0.0596139316398704 	(obj:0)
_var3704_                          0.0278357061902035 	(obj:0)
_var3706_                          0.0866838098613336 	(obj:0)
_var3707_                          0.0847257220710437 	(obj:1)
_var3708_                           0.114004810253373 	(obj:1)
_var3709_                          0.0280285001102008 	(obj:0)
_var3710_                          0.0615731197291956 	(obj:1)
_var3711_                          0.0739182803960794 	(obj:0)
_var3715_                           0.022296791938183 	(obj:0)
_var3716_                          0.0137257313595871 	(obj:0)
_var3718_                           0.130955557759328 	(obj:0)
_var3719_                          0.0781990885273633 	(obj:0)
_var3721_                          0.0138771946151187 	(obj:0)
_var3723_                          0.0217364807790964 	(obj:0)
_var3724_                         0.00498353013079387 	(obj:0)
_var3725_                         0.00367774008603425 	(obj:0)
